set DOMAINS := 1 2;
set STRATA[1] := 1 2;
set STRATA[2] := 1 2;

param N :=
	1 1 140
	1 2 110
	2 1 135
	2 2 190;

param S :=
	1 1 13.416408
	1 2 4.472136
	2 1 2.236068
	2 2 2.000000;
	
param total :=
	1 2
	2 3;
	
param kappa :=
	1 0.4
	2 0.6;

param n := 528;

	
	      